data;


param d:= 100;
param r:=5;
param p:=0.840000;
param M:=1000;
param U:=
         1         1       -1.592080e+00
         2         1       -5.797684e-01
         3         1       -1.007930e+00
         4         1        3.433996e-01
         5         1        4.143556e-01
         6         1        1.145559e-01
         7         1        9.501114e-01
         8         1       -8.908300e-02
         9         1       -1.707097e+00
        10         1       -6.419051e-01
        11         1        5.351098e-01
        12         1       -6.894667e-01
        13         1       -6.215851e-01
        14         1       -7.088566e-01
        15         1        1.175190e+00
        16         1       -2.398056e+00
        17         1       -1.655605e-02
        18         1       -7.680808e-01
        19         1        1.036456e+00
        20         1       -5.407979e-01
        21         1        1.989827e-01
        22         1       -1.241658e+00
        23         1        9.298104e-01
        24         1       -6.472715e-02
        25         1       -6.602718e-01
        26         1        1.281854e+00
        27         1       -1.485195e+00
        28         1        2.687901e-01
        29         1       -4.241665e-01
        30         1        5.912137e-01
        31         1       -8.193690e-01
        32         1       -6.747472e-01
        33         1        6.349106e-01
        34         1       -2.958787e-03
        35         1        1.329024e+00
        36         1       -3.929501e-01
        37         1        1.424614e+00
        38         1       -2.926600e-02
        39         1       -1.068899e+00
        40         1        5.765069e-01
        41         1        9.046104e-01
        42         1       -8.708282e-02
        43         1       -4.269627e-01
        44         1        8.913501e-01
        45         1       -1.148704e+00
        46         1        1.631811e+00
        47         1       -1.225877e+00
        48         1       -7.285680e-01
        49         1        1.312024e+00
        50         1        1.267980e+00
        51         1        1.406762e+00
        52         1       -1.285345e+00
        53         1       -3.537180e-01
        54         1        2.091066e-01
        55         1       -7.455770e-01
        56         1        1.235617e-01
        57         1        5.352682e-02
        58         1       -1.401415e+00
        59         1        5.733942e-01
        60         1       -3.832795e-01
        61         1       -3.764027e-01
        62         1        1.588781e+00
        63         1       -1.360344e+00
        64         1        1.114248e+00
        65         1       -5.118255e-01
        66         1       -1.385966e-01
        67         1        6.233228e-01
        68         1        2.878813e-01
        69         1        1.168877e-01
        70         1       -1.097542e+00
        71         1        1.554606e+00
        72         1        6.898939e-01
        73         1       -2.225243e+00
        74         1        1.025728e+00
        75         1       -7.639980e-02
        76         1       -5.205434e-01
        77         1       -5.995199e-01
        78         1       -1.847618e+00
        79         1        1.031355e+00
        80         1        4.619730e-01
        81         1        2.103223e+00
        82         1        1.783667e+00
        83         1       -1.345560e+00
        84         1        7.010484e-01
        85         1        1.026298e+00
        86         1        3.264340e-01
        87         1       -2.992203e-01
        88         1       -2.784794e-01
        89         1        1.642752e-01
        90         1        2.640737e-01
        91         1       -1.160675e-01
        92         1       -3.352193e-01
        93         1        1.228165e+00
        94         1       -8.504317e-02
        95         1        4.197904e-01
        96         1       -1.286579e+00
        97         1        1.428027e-01
        98         1        4.976198e-01
        99         1        2.054375e-02
       100         1        1.251307e+00
         1         2       -9.417723e-01
         2         2        8.684205e-01
         3         2       -3.626810e-01
         4         2       -9.861757e-01
         5         2       -4.935505e-01
         6         2        2.668717e+00
         7         2        1.397706e+00
         8         2       -7.575149e-01
         9         2       -6.395945e-01
        10         2       -3.770797e-01
        11         2        1.705567e-01
        12         2       -3.341773e-01
        13         2        6.676617e-01
        14         2       -2.145249e+00
        15         2       -9.891587e-01
        16         2       -4.384481e-01
        17         2       -5.985072e-01
        18         2       -8.128328e-01
        19         2        4.936643e-01
        20         2       -1.695279e-01
        21         2        6.849548e-01
        22         2        6.533118e-01
        23         2       -1.448295e+00
        24         2       -7.560238e-01
        25         2       -1.494475e+00
        26         2       -8.336097e-01
        27         2        3.698668e-01
        28         2        4.879131e-01
        29         2       -4.992940e-01
        30         2       -4.292849e-01
        31         2       -5.855978e-01
        32         2        6.203023e-01
        33         2        5.782815e-01
        34         2        3.252529e-01
        35         2        1.350606e+00
        36         2        1.252790e+00
        37         2       -2.687851e-01
        38         2        4.806849e-01
        39         2       -8.175277e-01
        40         2        5.837080e-01
        41         2        1.100773e-01
        42         2        2.986212e-02
        43         2        4.735836e-01
        44         2        1.380240e-01
        45         2        7.084733e-01
        46         2        1.665922e+00
        47         2        5.972174e-03
        48         2        1.074607e+00
        49         2       -3.414332e-01
        50         2        6.741905e-01
        51         2        6.389958e-01
        52         2       -6.713022e-01
        53         2       -1.306484e+00
        54         2       -6.678162e-01
        55         2        1.110922e+00
        56         2       -2.592688e-01
        57         2       -7.331858e-01
        58         2        5.278833e-01
        59         2        1.217130e+00
        60         2       -1.817706e-01
        61         2       -6.864534e-01
        62         2       -7.532810e-01
        63         2       -7.259445e-01
        64         2        7.522252e-01
        65         2       -8.805308e-01
        66         2        6.608056e-01
        67         2       -2.070299e-01
        68         2       -1.123865e+00
        69         2        2.195327e+00
        70         2        1.653914e+00
        71         2       -5.670808e-01
        72         2        7.528343e-01
        73         2        3.463968e-01
        74         2       -7.733670e-01
        75         2       -3.050704e-01
        76         2        2.103075e+00
        77         2       -1.866470e+00
        78         2        4.772075e-01
        79         2        9.298962e-01
        80         2        2.494671e-02
        81         2       -8.190463e-02
        82         2       -2.962391e-01
        83         2        9.429922e-01
        84         2        7.419431e-02
        85         2        5.462582e-01
        86         2       -1.004738e+00
        87         2       -1.580040e+00
        88         2        1.696846e-02
        89         2       -5.771034e-02
        90         2       -2.438836e-01
        91         2        1.231856e+00
        92         2       -2.399404e-01
        93         2       -2.695862e-01
        94         2       -4.616043e-01
        95         2       -4.235809e-01
        96         2       -4.360092e-01
        97         2       -1.314629e+00
        98         2       -1.055109e+00
        99         2        2.656971e-01
       100         2       -8.744133e-01
         1         3        1.728083e-01
         2         3       -1.810411e+00
         3         3        4.276734e-01
         4         3        5.627736e-01
         5         3       -7.064391e-01
         6         3        1.029602e-01
         7         3       -1.115355e+00
         8         3       -2.129235e-01
         9         3       -1.152450e-01
        10         3       -1.377823e+00
        11         3       -1.427615e+00
        12         3       -7.093614e-02
        13         3       -5.377545e-01
        14         3       -1.100940e+00
        15         3       -7.712169e-01
        16         3       -7.348895e-01
        17         3       -9.471908e-01
        18         3       -1.638849e+00
        19         3        8.782476e-01
        20         3       -5.551116e-01
        21         3        3.173124e-01
        22         3       -5.020793e-01
        23         3       -8.187428e-01
        24         3       -2.184835e+00
        25         3       -3.888906e-01
        26         3        7.048384e-01
        27         3       -3.641115e-01
        28         3       -6.120744e-01
        29         3       -1.446316e-01
        30         3        6.381055e-01
        31         3        1.222810e+00
        32         3        6.792463e-01
        33         3       -1.843298e+00
        34         3       -1.961987e+00
        35         3        1.834282e+00
        36         3        1.241526e+00
        37         3        1.820367e+00
        38         3        1.624179e+00
        39         3       -3.015761e-01
        40         3       -6.425979e-01
        41         3        1.826697e-01
        42         3       -5.721559e-01
        43         3        5.116643e-01
        44         3        9.302586e-01
        45         3       -5.572473e-01
        46         3       -1.191640e+00
        47         3        3.188306e-01
        48         3       -5.458286e-01
        49         3        9.727319e-01
        50         3        1.511942e-01
        51         3       -1.454935e+00
        52         3       -1.130250e+00
        53         3       -2.501734e-01
        54         3       -1.060769e+00
        55         3        8.417742e-01
        56         3       -7.416928e-01
        57         3       -6.639299e-01
        58         3       -2.501014e-01
        59         3       -5.290627e-02
        60         3       -3.637453e-01
        61         3       -3.889534e-02
        62         3       -7.509007e-01
        63         3       -8.016417e-01
        64         3        1.060376e+00
        65         3        1.044526e-01
        66         3       -1.778579e+00
        67         3       -8.831366e-01
        68         3        1.824402e+00
        69         3       -1.262145e+00
        70         3        9.762636e-01
        71         3        3.532134e-01
        72         3        8.050421e-01
        73         3        4.206423e-01
        74         3        1.142918e+00
        75         3        1.471042e+00
        76         3       -8.237696e-01
        77         3       -4.598757e-01
        78         3        6.076344e-01
        79         3        7.218112e-01
        80         3       -8.793434e-01
        81         3       -4.362610e-01
        82         3       -2.008732e-01
        83         3        5.049805e-01
        84         3        9.390166e-01
        85         3       -5.795691e-02
        86         3        1.413653e+00
        87         3        1.156893e+00
        88         3       -6.954219e-01
        89         3        6.465188e-01
        90         3        1.471256e+00
        91         3       -9.207139e-01
        92         3        1.538850e+00
        93         3       -2.919686e-01
        94         3        3.844014e-01
        95         3        1.302454e+00
        96         3       -1.657225e+00
        97         3       -4.122389e-01
        98         3       -1.289953e+00
        99         3        2.280430e+00
       100         3        2.051907e-01
         1         4       -5.988899e-01
         2         4        1.535069e+00
         3         4       -5.223487e-01
         4         4       -1.782820e+00
         5         4        7.976853e-01
         6         4        1.559883e+00
         7         4       -3.115131e-01
         8         4        2.027687e+00
         9         4        4.281418e-01
        10         4       -7.268789e-01
        11         4       -1.186362e-01
        12         4        2.637009e-01
        13         4        2.172358e+00
        14         4        5.705381e-01
        15         4        1.212964e+00
        16         4       -1.203206e+00
        17         4        3.607438e-01
        18         4       -5.773367e-01
        19         4        3.146234e-01
        20         4       -1.090449e+00
        21         4        8.372274e-01
        22         4        3.462636e-01
        23         4       -3.737710e-01
        24         4        9.519330e-01
        25         4        1.671130e+00
        26         4        6.828903e-01
        27         4        7.909865e-01
        28         4       -1.354845e+00
        29         4        5.247532e-01
        30         4        7.287841e-01
        31         4        1.804021e+00
        32         4       -2.902393e-01
        33         4        9.343154e-02
        34         4       -5.200217e-01
        35         4        7.167539e-01
        36         4       -6.822493e-01
        37         4        4.189015e-02
        38         4       -1.188959e+00
        39         4        4.254107e-02
        40         4        7.566834e-01
        41         4        1.566330e+00
        42         4       -1.161462e+00
        43         4       -4.764906e-01
        44         4        6.300131e-01
        45         4        1.254848e+00
        46         4        6.791743e-01
        47         4        4.156503e-01
        48         4       -6.086458e-01
        49         4        9.769269e-01
        50         4       -6.759516e-01
        51         4       -1.420944e+00
        52         4       -6.575540e-01
        53         4        9.497103e-01
        54         4        3.139906e-02
        55         4       -3.396121e-01
        56         4        4.673591e-02
        57         4        6.932995e-01
        58         4        1.961210e+00
        59         4        9.152478e-02
        60         4       -9.877142e-01
        61         4        3.074778e-01
        62         4       -6.612097e-01
        63         4        9.792824e-01
        64         4        8.892030e-01
        65         4        2.341611e+00
        66         4       -1.301412e+00
        67         4       -1.273147e+00
        68         4        1.866743e+00
        69         4        6.918558e-01
        70         4       -9.458214e-01
        71         4       -2.781535e-01
        72         4       -6.016453e-01
        73         4       -8.808183e-01
        74         4       -1.897850e-01
        75         4       -9.388950e-01
        76         4       -1.709909e-01
        77         4       -9.862166e-01
        78         4        4.598773e-01
        79         4        5.685161e-01
        80         4        1.931849e-01
        81         4       -1.645317e+00
        82         4        1.456370e+00
        83         4        5.988295e-01
        84         4        2.029472e-01
        85         4       -5.014259e-01
        86         4       -3.827395e-01
        87         4        1.106341e+00
        88         4        9.340592e-01
        89         4       -7.509513e-01
        90         4        6.815458e-01
        91         4        9.067347e-01
        92         4       -1.491435e-02
        93         4       -6.551541e-01
        94         4        6.165675e-01
        95         4        1.919607e+00
        96         4        1.894964e-01
        97         4        8.450421e-01
        98         4        1.358212e+00
        99         4       -3.286497e-01
       100         4        5.920449e-01
         1         5       -1.786058e+00
         2         5        3.164603e-01
         3         5       -9.775067e-01
         4         5        4.896885e-01
         5         5        8.457591e-01
         6         5        7.698083e-01
         7         5        1.563326e-01
         8         5       -1.331635e+00
         9         5        2.281371e-01
        10         5        2.122033e-01
        11         5       -3.791977e-01
        12         5        7.687976e-01
        13         5        6.824770e-01
        14         5       -2.287220e-01
        15         5        8.610113e-01
        16         5        1.091196e+00
        17         5        1.425367e-01
        18         5        9.245085e-01
        19         5       -6.374110e-01
        20         5        1.480597e-01
        21         5       -9.700501e-01
        22         5       -3.749314e-02
        23         5        3.424504e-01
        24         5        7.035964e-01
        25         5        9.479123e-02
        26         5        6.907135e-01
        27         5       -1.315811e+00
        28         5        2.271242e+00
        29         5       -1.418361e+00
        30         5       -1.676865e+00
        31         5       -1.870487e+00
        32         5        7.686376e-01
        33         5        1.587456e+00
        34         5        2.674097e+00
        35         5       -2.538718e-01
        36         5       -5.093868e-01
        37         5       -2.146933e+00
        38         5       -3.773348e-01
        39         5        1.235046e-01
        40         5       -1.462911e+00
        41         5       -1.503538e+00
        42         5       -1.152898e+00
        43         5        7.005680e-01
        44         5        2.451481e-01
        45         5       -4.738889e-01
        46         5       -5.718864e-01
        47         5       -2.807728e-01
        48         5       -1.533152e-01
        49         5       -2.739112e-01
        50         5        1.842284e+00
        51         5       -7.984108e-01
        52         5        1.666338e+00
        53         5       -1.615110e-01
        54         5        1.313010e+00
        55         5       -2.751939e-02
        56         5       -7.638653e-01
        57         5       -7.232606e-02
        58         5        6.421828e-01
        59         5        6.675488e-01
        60         5       -2.382398e-01
        61         5        2.727577e-01
        62         5        2.730733e-01
        63         5       -1.618089e-01
        64         5        1.192955e+00
        65         5        4.787089e-02
        66         5        1.075810e+00
        67         5        1.577756e+00
        68         5       -1.250505e+00
        69         5        9.763222e-01
        70         5        4.268955e-01
        71         5        6.481407e-01
        72         5        1.624419e+00
        73         5       -9.180953e-01
        74         5        1.539813e+00
        75         5        3.249018e-01
        76         5        4.577006e-01
        77         5       -1.318477e+00
        78         5       -1.389363e-02
        79         5        1.315011e+00
        80         5       -1.481786e+00
        81         5       -1.067516e+00
        82         5       -5.836480e-01
        83         5        6.127197e-01
        84         5        1.075806e-01
        85         5       -4.614126e-01
        86         5        5.631291e-01
        87         5       -5.244138e-01
        88         5       -1.709406e+00
        89         5       -7.831228e-01
        90         5        1.707425e+00
        91         5       -6.948900e-01
        92         5        1.967721e+00
        93         5       -1.026743e+00
        94         5        1.176918e+00
        95         5        1.670115e+00
        96         5       -2.871508e-01
        97         5        5.380776e-01
        98         5       -6.974714e-02
        99         5       -8.861731e-01
       100         5        3.660098e-01
;

param theta:=
    1       -7.109008e-01
    2       -2.738895e-02
    3       -3.073958e-01
    4       -5.259412e-01
    5        3.700300e-01
;
param X_true:=
    1        7.698482e-01
    2        2.660522e-01
    3        4.459015e-01
    4        8.039925e-01
    5       -2.698855e-01
    6       -7.322066e-01
    7       -1.586449e-01
    8       -1.552956e+00
    9        1.217235e+00
   10        1.332307e+00
   11       -6.349032e-02
   12        6.939202e-01
   13       -3.531618e-01
   14        6.002348e-01
   15       -8.593682e-01
   16        3.033816e+00
   17        2.290003e-01
   18        1.783625e+00
   19       -1.454280e+00
   20        1.230640e+00
   21       -1.118528e+00
   22        7.589882e-01
   23       -1.334667e-01
   24        5.645204e-01
   25       -1.602865e-01
   26       -1.128307e+00
   27        1.847051e-01
   28        1.672837e+00
   29       -3.241973e-01
   30       -1.424290e+00
   31       -1.366533e+00
   32        6.718320e-01
   33        5.409397e-01
   34        1.748353e+00
   35       -1.870908e+00
   36        1.129486e-01
   37       -2.259707e+00
   38        6.751040e-02
   39        7.262548e-01
   40       -1.213289e+00
   41       -2.053405e+00
   42        4.027267e-01
   43        7.527664e-01
   44       -1.086038e+00
   45        6.975273e-02
   46       -1.483421e+00
   47        4.142210e-01
   48        9.271304e-01
   49       -1.631180e+00
   50        1.059780e-01
   51        9.770733e-02
   52        1.973470e+00
   53       -4.163427e-01
   54        6.673193e-01
   55        5.172065e-01
   56       -1.413336e-01
   57       -1.457504e-01
   58        1.615608e-01
   59       -1.357053e-01
   60        8.344812e-01
   61        2.348432e-01
   62       -6.037105e-01
   63        6.833662e-01
   64       -1.118305e+00
   65       -8.170247e-01
   66        1.666704e+00
   67        1.054585e+00
   68       -2.241207e+00
   69        2.722209e-01
   70        1.007363e+00
   71       -9.036624e-01
   72        1.784088e-01
   73        1.762324e+00
   74       -3.350499e-01
   75        2.802887e-01
   76        9.679734e-01
   77        5.384224e-01
   78        8.386989e-01
   79       -7.783074e-01
   80       -7.002477e-01
   81       -7.146230e-01
   82       -2.186704e+00
   83        5.882817e-01
   84       -7.506312e-01
   85       -8.298198e-01
   86       -3.477594e-01
   87       -8.763481e-01
   88       -6.739034e-01
   89       -3.583396e-01
   90       -2.944962e-01
   91       -3.290134e-01
   92        4.868249e-01
   93       -7.220699e-01
   94        7.200188e-02
   95       -9.473767e-01
   96        1.330618e+00
   97       -1.142727e-01
   98       -6.264494e-01
   99       -7.917779e-01
  100       -1.235041e+00
;
param X:=
    1        1.306261e-01
    2       -3.989120e-01
    3       -7.289620e-01
    4        1.404323e+00
    5        8.479386e-01
    6       -8.317076e-01
    7        1.427148e+00
    8        6.713919e-01
    9       -9.425834e-01
   10       -2.662692e+00
   11        4.659388e-01
   12        6.939202e-01
   13       -1.603524e+00
   14       -1.662219e+00
   15        2.255355e+00
   16        3.033816e+00
   17       -7.027945e-01
   18        1.783625e+00
   19        3.664196e-01
   20       -1.267371e+00
   21        7.934834e-01
   22       -1.767618e+00
   23       -2.167139e-01
   24       -1.318219e+00
   25       -1.076912e+00
   26       -1.128307e+00
   27        8.847270e-01
   28       -2.281718e-01
   29        9.772620e-02
   30       -3.209836e-01
   31       -1.125994e+00
   32       -2.174815e+00
   33        1.564041e+00
   34        1.748353e+00
   35       -3.748406e-01
   36       -5.260431e-01
   37       -2.259707e+00
   38        2.173528e-01
   39       -1.127132e-01
   40        1.731958e-01
   41       -2.053405e+00
   42       -1.068134e+00
   43        1.702217e+00
   44       -8.447228e-01
   45        6.975273e-02
   46       -1.483421e+00
   47        2.149412e+00
   48       -9.880120e-01
   49       -1.631180e+00
   50        7.993477e-01
   51       -3.794786e-02
   52        2.046057e+00
   53        1.293496e+00
   54       -8.363224e-01
   55        1.152098e+00
   56        4.042038e-01
   57       -6.672447e-01
   58        3.596203e+00
   59       -1.975328e-01
   60        8.344812e-01
   61       -1.491051e+00
   62        1.138275e+00
   63        1.048690e+00
   64        2.783307e-02
   65        1.178366e+00
   66       -6.103761e-01
   67       -7.779914e-01
   68        8.611303e-01
   69        5.540719e-01
   70        1.014055e+00
   71       -1.064772e+00
   72        1.784088e-01
   73        9.051416e-01
   74        1.073645e+00
   75       -9.211415e-01
   76        7.966578e-01
   77        1.389404e+00
   78       -1.164758e-01
   79       -7.783074e-01
   80        4.743843e-01
   81       -7.146230e-01
   82       -2.783280e-01
   83       -2.031543e+00
   84       -7.759858e-01
   85       -1.048787e+00
   86        6.817278e-02
   87        1.260857e+00
   88       -2.809426e+00
   89        6.963363e-01
   90       -1.348705e+00
   91       -1.063705e+00
   92       -1.327949e+00
   93       -8.929568e-01
   94        1.825473e+00
   95        3.834258e-01
   96       -4.020092e-01
   97        1.810851e-01
   98       -1.005841e-01
   99       -7.807834e-01
  100       -1.235041e+00
;
param outliervec:=
    1    1
    2    1
    3    1
    4    1
    5    1
    6    1
    7    1
    8    1
    9    1
   10    1
   11    1
   12    0
   13    1
   14    1
   15    1
   16    0
   17    1
   18    0
   19    1
   20    1
   21    1
   22    1
   23    1
   24    1
   25    1
   26    0
   27    1
   28    1
   29    1
   30    1
   31    1
   32    1
   33    1
   34    0
   35    1
   36    1
   37    0
   38    1
   39    1
   40    1
   41    0
   42    1
   43    1
   44    1
   45    0
   46    0
   47    1
   48    1
   49    0
   50    1
   51    1
   52    1
   53    1
   54    1
   55    1
   56    1
   57    1
   58    1
   59    1
   60    0
   61    1
   62    1
   63    1
   64    1
   65    1
   66    1
   67    1
   68    1
   69    1
   70    1
   71    1
   72    0
   73    1
   74    1
   75    1
   76    1
   77    1
   78    1
   79    0
   80    1
   81    0
   82    1
   83    1
   84    1
   85    1
   86    1
   87    1
   88    1
   89    1
   90    1
   91    1
   92    1
   93    1
   94    1
   95    1
   96    1
   97    1
   98    1
   99    1
  100    0
;